\ENCODING=ISO-8859-1
\Problem name: ilog.cplex

Maximize
 obj: 1231 x(0)#0 + 498 x(1)#1 + 927 x(2)#2 + 1115 x(3)#3 + 671 x(4)#4
      + 888 x(5)#5 + 477 x(6)#6 + 982 x(7)#7 + 1018 x(8)#8 + 699 x(9)#9
      + 772 x(10)#10 + 867 x(11)#11 + 913 x(12)#12 + 534 x(13)#13
      + 762 x(14)#14 + 707 x(15)#15 + 610 x(16)#16 + 797 x(17)#17
      + 801 x(18)#18 + 705 x(19)#19 + 397 x(20)#20 + 418 x(21)#21
      + 502 x(22)#22 + 667 x(23)#23 + 1105 x(24)#24 + 694 x(25)#25
      + 865 x(26)#26 + 554 x(27)#27 + 852 x(28)#28 + 717 x(29)#29
      + 642 x(30)#30 + 445 x(31)#31 + 1083 x(32)#32 + 596 x(33)#33
      + 849 x(34)#34 + 619 x(35)#35 + 406 x(36)#36 + 775 x(37)#37
      + 441 x(38)#38 + 714 x(39)#39 + 513 x(40)#40 + 651 x(41)#41
      + 1060 x(42)#42 + 409 x(43)#43 + 723 x(44)#44 + 761 x(45)#45
      + 784 x(46)#46 + 651 x(47)#47 + 725 x(48)#48 + 761 x(49)#49
      + 576 x(50)#50 + 508 x(51)#51 + 731 x(52)#52 + 704 x(53)#53
      + 640 x(54)#54 + 616 x(55)#55 + 855 x(56)#56 + 1001 x(57)#57
      + 641 x(58)#58 + 834 x(59)#59 + 537 x(60)#60 + 620 x(61)#61
      + 603 x(62)#62 + 364 x(63)#63 + 553 x(64)#64 + 615 x(65)#65
      + 589 x(66)#66 + 574 x(67)#67 + 790 x(68)#68 + 759 x(69)#69
      + 700 x(70)#70 + 887 x(71)#71 + 575 x(72)#72 + 550 x(73)#73
      + 1162 x(74)#74 + 772 x(75)#75 + 973 x(76)#76 + 387 x(77)#77
      + 383 x(78)#78 + 700 x(79)#79 + 934 x(80)#80 + 650 x(81)#81
      + 959 x(82)#82 + 1282 x(83)#83 + 969 x(84)#84 + 1163 x(85)#85
      + 886 x(86)#86 + 835 x(87)#87 + 1137 x(88)#88 + 502 x(89)#89
      + 483 x(90)#90 + 511 x(91)#91 + 796 x(92)#92 + 1090 x(93)#93
      + 690 x(94)#94 + 901 x(95)#95 + 773 x(96)#96 + 829 x(97)#97
      + 885 x(98)#98 + 1103 x(99)#99
Subject To
 c1: 666 x(0)#0 + 688 x(1)#1 + 983 x(2)#2 + 479 x(3)#3 + 117 x(4)#4 + 68 x(5)#5
     + 357 x(6)#6 + 972 x(7)#7 + 505 x(8)#8 + 865 x(9)#9 + 36 x(10)#10
     + 603 x(11)#11 + 982 x(12)#12 + 727 x(13)#13 + 396 x(14)#14 + 23 x(15)#15
     + 201 x(16)#16 + 67 x(17)#17 + 423 x(18)#18 + 272 x(19)#19 + 234 x(20)#20
     + 567 x(21)#21 + 168 x(22)#22 + 798 x(23)#23 + 693 x(24)#24 + 2 x(25)#25
     + 317 x(26)#26 + 576 x(27)#27 + 393 x(28)#28 + 990 x(29)#29 + 284 x(30)#30
     + 235 x(31)#31 + 602 x(32)#32 + 374 x(33)#33 + 471 x(34)#34 + 196 x(35)#35
     + 30 x(36)#36 + 268 x(37)#37 + 47 x(38)#38 + 516 x(39)#39 + 362 x(40)#40
     + 963 x(41)#41 + 570 x(42)#42 + 174 x(43)#43 + 226 x(44)#44 + 281 x(45)#45
     + 213 x(46)#46 + 297 x(47)#47 + 699 x(48)#48 + 51 x(49)#49 + 327 x(50)#50
     + 590 x(51)#51 + 929 x(52)#52 + 342 x(53)#53 + 883 x(54)#54 + 145 x(55)#55
     + 31 x(56)#56 + 753 x(57)#57 + 947 x(58)#58 + 71 x(59)#59 + 449 x(60)#60
     + 579 x(61)#61 + 772 x(62)#62 + 876 x(63)#63 + 755 x(64)#64 + 342 x(65)#65
     + 30 x(66)#66 + 809 x(67)#67 + 24 x(68)#68 + 336 x(69)#69 + 217 x(70)#70
     + 568 x(71)#71 + 299 x(72)#72 + 157 x(73)#73 + 846 x(74)#74 + 183 x(75)#75
     + 654 x(76)#76 + 223 x(77)#77 + 10 x(78)#78 + 870 x(79)#79 + 835 x(80)#80
     + 808 x(81)#81 + 508 x(82)#82 + 977 x(83)#83 + 309 x(84)#84 + 997 x(85)#85
     + 920 x(86)#86 + 892 x(87)#87 + 749 x(88)#88 + 355 x(89)#89 + 819 x(90)#90
     + 186 x(91)#91 + 46 x(92)#92 + 591 x(93)#93 + 102 x(94)#94 + 859 x(95)#95
     + 935 x(96)#96 + 855 x(97)#97 + 334 x(98)#98 + 968 x(99)#99 <= 24045
 c2: 716 x(0)#0 + 97 x(1)#1 + 257 x(2)#2 + 968 x(3)#3 + 460 x(4)#4 + 815 x(5)#5
     + 704 x(6)#6 + 32 x(7)#7 + 961 x(8)#8 + 767 x(9)#9 + 253 x(10)#10
     + 693 x(11)#11 + 737 x(12)#12 + 316 x(13)#13 + 780 x(14)#14 + 233 x(15)#15
     + 190 x(16)#16 + 414 x(17)#17 + 393 x(18)#18 + 143 x(19)#19 + 536 x(20)#20
     + 274 x(21)#21 + 69 x(22)#22 + 87 x(23)#23 + 693 x(24)#24 + 449 x(25)#25
     + 840 x(26)#26 + 480 x(27)#27 + 662 x(28)#28 + 906 x(29)#29 + 877 x(30)#30
     + 320 x(31)#31 + 890 x(32)#32 + 791 x(33)#33 + 464 x(34)#34 + 316 x(35)#35
     + 78 x(36)#36 + 800 x(37)#37 + 576 x(38)#38 + 728 x(39)#39 + 475 x(40)#40
     + 546 x(41)#41 + 845 x(42)#42 + 406 x(43)#43 + 86 x(44)#44 + 580 x(45)#45
     + 856 x(46)#46 + 927 x(47)#47 + 325 x(48)#48 + 655 x(49)#49 + 85 x(50)#50
     + 690 x(51)#51 + 95 x(52)#52 + 4 x(53)#53 + 193 x(54)#54 + 552 x(55)#55
     + 840 x(56)#56 + 458 x(57)#57 + 995 x(58)#58 + 491 x(59)#59 + 7 x(60)#60
     + 518 x(61)#61 + 284 x(62)#62 + 121 x(63)#63 + 728 x(64)#64 + 306 x(65)#65
     + 646 x(66)#66 + 365 x(67)#67 + 632 x(68)#68 + 937 x(69)#69 + 558 x(70)#70
     + 48 x(71)#71 + 229 x(72)#72 + 303 x(73)#73 + 666 x(74)#74 + 873 x(75)#75
     + 881 x(76)#76 + 411 x(77)#77 + 272 x(78)#78 + 466 x(79)#79 + 330 x(80)#80
     + 665 x(81)#81 + 60 x(82)#82 + 782 x(83)#83 + 450 x(84)#84 + 769 x(85)#85
     + 583 x(86)#86 + 427 x(87)#87 + 799 x(88)#88 + 266 x(89)#89 + 319 x(90)#90
     + 100 x(91)#91 + 362 x(92)#92 + 213 x(93)#93 + 307 x(94)#94 + 468 x(95)#95
     + 352 x(96)#96 + 873 x(97)#97 + 355 x(98)#98 + 89 x(99)#99 <= 24345
 c3: 923 x(0)#0 + 385 x(1)#1 + 266 x(2)#2 + 374 x(3)#3 + 886 x(4)#4
     + 895 x(5)#5 + 107 x(6)#6 + 647 x(7)#7 + 138 x(8)#8 + 39 x(9)#9
     + 461 x(10)#10 + 866 x(11)#11 + 524 x(12)#12 + 500 x(13)#13 + 589 x(14)#14
     + 586 x(15)#15 + 410 x(16)#16 + 595 x(17)#17 + 687 x(18)#18 + 98 x(19)#19
     + 585 x(20)#20 + 241 x(21)#21 + 308 x(22)#22 + 436 x(23)#23 + 368 x(24)#24
     + 773 x(25)#25 + 523 x(26)#26 + 223 x(27)#27 + 978 x(28)#28 + 141 x(29)#29
     + 47 x(30)#30 + 386 x(31)#31 + 766 x(32)#32 + 729 x(33)#33 + 748 x(34)#34
     + 628 x(35)#35 + 47 x(36)#36 + 826 x(37)#37 + 234 x(38)#38 + 430 x(39)#39
     + 123 x(40)#40 + 265 x(41)#41 + 909 x(42)#42 + 143 x(43)#43 + 395 x(44)#44
     + 863 x(45)#45 + 154 x(46)#46 + 262 x(47)#47 + 335 x(48)#48 + 696 x(49)#49
     + 313 x(50)#50 + 557 x(51)#51 + 150 x(52)#52 + 558 x(53)#53 + 898 x(54)#54
     + 82 x(55)#55 + 984 x(56)#56 + 246 x(57)#57 + 98 x(58)#58 + 860 x(59)#59
     + 597 x(60)#60 + 101 x(61)#61 + 762 x(62)#62 + 607 x(63)#63 + 530 x(64)#64
     + 657 x(65)#65 + 340 x(66)#66 + 104 x(67)#67 + 943 x(68)#68 + 783 x(69)#69
     + 621 x(70)#70 + 688 x(71)#71 + 721 x(72)#72 + 384 x(73)#73 + 233 x(74)#74
     + 689 x(75)#75 + 296 x(76)#76 + 339 x(77)#77 + 209 x(78)#78 + 122 x(79)#79
     + 599 x(80)#80 + 624 x(81)#81 + 861 x(82)#82 + 866 x(83)#83 + 543 x(84)#84
     + 810 x(85)#85 + 769 x(86)#86 + 846 x(87)#87 + 955 x(88)#88 + 642 x(89)#89
     + 561 x(90)#90 + 922 x(91)#91 + 994 x(92)#92 + 931 x(93)#93 + 908 x(94)#94
     + 329 x(95)#95 + 366 x(96)#96 + 513 x(97)#97 + 274 x(98)#98 + 868 x(99)#99
     <= 26096
 c4: 742 x(0)#0 + 496 x(1)#1 + 589 x(2)#2 + 804 x(3)#3 + 302 x(4)#4
     + 958 x(5)#5 + 873 x(6)#6 + 201 x(7)#7 + 818 x(8)#8 + 391 x(9)#9
     + 491 x(10)#10 + 166 x(11)#11 + 133 x(12)#12 + 125 x(13)#13 + 858 x(14)#14
     + 858 x(15)#15 + 516 x(16)#16 + 468 x(17)#17 + 113 x(18)#18 + 688 x(19)#19
     + 40 x(20)#20 + 303 x(21)#21 + 568 x(22)#22 + 489 x(23)#23 + 727 x(24)#24
     + 149 x(25)#25 + 709 x(26)#26 + 510 x(27)#27 + 747 x(28)#28 + 208 x(29)#29
     + 605 x(30)#30 + 55 x(31)#31 + 549 x(32)#32 + 411 x(33)#33 + 131 x(34)#34
     + 83 x(35)#35 + 785 x(36)#36 + 273 x(37)#37 + 396 x(38)#38 + 445 x(39)#39
     + 417 x(40)#40 + 365 x(41)#41 + 873 x(42)#42 + 155 x(43)#43 + 879 x(44)#44
     + 741 x(45)#45 + 426 x(46)#46 + 742 x(47)#47 + 755 x(48)#48 + 118 x(49)#49
     + 26 x(50)#50 + 24 x(51)#51 + 88 x(52)#52 + 534 x(53)#53 + 62 x(54)#54
     + 17 x(55)#55 + 455 x(56)#56 + 923 x(57)#57 + 293 x(58)#58 + 640 x(59)#59
     + 856 x(60)#60 + 919 x(61)#61 + 751 x(62)#62 + 178 x(63)#63 + 332 x(64)#64
     + 784 x(65)#65 + 749 x(66)#66 + 51 x(67)#67 + 875 x(68)#68 + 417 x(69)#69
     + 196 x(70)#70 + 727 x(71)#71 + 950 x(72)#72 + 483 x(73)#73 + 809 x(74)#74
     + 232 x(75)#75 + 101 x(76)#76 + 745 x(77)#77 + 507 x(78)#78 + 261 x(79)#79
     + 814 x(80)#80 + 757 x(81)#81 + 652 x(82)#82 + 727 x(83)#83 + 658 x(84)#84
     + 902 x(85)#85 + 421 x(86)#86 + 731 x(87)#87 + 1000 x(88)#88
     + 303 x(89)#89 + 68 x(90)#90 + 53 x(91)#91 + 501 x(92)#92 + 782 x(93)#93
     + 718 x(94)#94 + 979 x(95)#95 + 530 x(96)#96 + 824 x(97)#97 + 692 x(98)#98
     + 926 x(99)#99 <= 25634
 c5: 827 x(0)#0 + 439 x(1)#1 + 328 x(2)#2 + 494 x(3)#3 + 745 x(4)#4
     + 386 x(5)#5 + 124 x(6)#6 + 996 x(7)#7 + 847 x(8)#8 + 440 x(9)#9
     + 943 x(10)#10 + 999 x(11)#11 + 181 x(12)#12 + 500 x(13)#13 + 574 x(14)#14
     + 355 x(15)#15 + 934 x(16)#16 + 472 x(17)#17 + 76 x(18)#18 + 693 x(19)#19
     + 122 x(20)#20 + 447 x(21)#21 + 881 x(22)#22 + 847 x(23)#23 + 971 x(24)#24
     + 500 x(25)#25 + 644 x(26)#26 + 116 x(27)#27 + 679 x(28)#28 + 315 x(29)#29
     + 648 x(30)#30 + 378 x(31)#31 + 450 x(32)#32 + 187 x(33)#33 + 368 x(34)#34
     + 427 x(35)#35 + 225 x(36)#36 + 57 x(37)#37 + 458 x(38)#38 + 274 x(39)#39
     + 182 x(40)#40 + 395 x(41)#41 + 396 x(42)#42 + 613 x(43)#43 + 47 x(44)#44
     + 337 x(45)#45 + 586 x(46)#46 + 694 x(47)#47 + 813 x(48)#48 + 340 x(49)#49
     + 51 x(50)#50 + 41 x(51)#51 + 981 x(52)#52 + 699 x(53)#53 + 862 x(54)#54
     + 574 x(55)#55 + 873 x(56)#56 + 738 x(57)#57 + 487 x(58)#58 + 12 x(59)#59
     + 556 x(60)#60 + 689 x(61)#61 + 282 x(62)#62 + x(63)#63 + 31 x(64)#64
     + 5 x(65)#65 + 787 x(66)#66 + 348 x(67)#67 + 286 x(68)#68 + 361 x(69)#69
     + 123 x(70)#70 + 39 x(71)#71 + 490 x(72)#72 + 138 x(73)#73 + 892 x(74)#74
     + 829 x(75)#75 + 933 x(76)#76 + 141 x(77)#77 + 758 x(78)#78 + 679 x(79)#79
     + 47 x(80)#80 + 98 x(81)#81 + 729 x(82)#82 + 982 x(83)#83 + 675 x(84)#84
     + 749 x(85)#85 + 42 x(86)#86 + 168 x(87)#87 + 600 x(88)#88 + 192 x(89)#89
     + 337 x(90)#90 + 163 x(91)#91 + 264 x(92)#92 + 793 x(93)#93 + 536 x(94)#94
     + 843 x(95)#95 + 715 x(96)#96 + 964 x(97)#97 + 651 x(98)#98 + 619 x(99)#99
     <= 24302
Bounds
 0 <= x(0)#0 <= 1
 0 <= x(1)#1 <= 1
 0 <= x(2)#2 <= 1
 0 <= x(3)#3 <= 1
 0 <= x(4)#4 <= 1
 0 <= x(5)#5 <= 1
 0 <= x(6)#6 <= 1
 0 <= x(7)#7 <= 1
 0 <= x(8)#8 <= 1
 0 <= x(9)#9 <= 1
 0 <= x(10)#10 <= 1
 0 <= x(11)#11 <= 1
 0 <= x(12)#12 <= 1
 0 <= x(13)#13 <= 1
 0 <= x(14)#14 <= 1
 0 <= x(15)#15 <= 1
 0 <= x(16)#16 <= 1
 0 <= x(17)#17 <= 1
 0 <= x(18)#18 <= 1
 0 <= x(19)#19 <= 1
 0 <= x(20)#20 <= 1
 0 <= x(21)#21 <= 1
 0 <= x(22)#22 <= 1
 0 <= x(23)#23 <= 1
 0 <= x(24)#24 <= 1
 0 <= x(25)#25 <= 1
 0 <= x(26)#26 <= 1
 0 <= x(27)#27 <= 1
 0 <= x(28)#28 <= 1
 0 <= x(29)#29 <= 1
 0 <= x(30)#30 <= 1
 0 <= x(31)#31 <= 1
 0 <= x(32)#32 <= 1
 0 <= x(33)#33 <= 1
 0 <= x(34)#34 <= 1
 0 <= x(35)#35 <= 1
 0 <= x(36)#36 <= 1
 0 <= x(37)#37 <= 1
 0 <= x(38)#38 <= 1
 0 <= x(39)#39 <= 1
 0 <= x(40)#40 <= 1
 0 <= x(41)#41 <= 1
 0 <= x(42)#42 <= 1
 0 <= x(43)#43 <= 1
 0 <= x(44)#44 <= 1
 0 <= x(45)#45 <= 1
 0 <= x(46)#46 <= 1
 0 <= x(47)#47 <= 1
 0 <= x(48)#48 <= 1
 0 <= x(49)#49 <= 1
 0 <= x(50)#50 <= 1
 0 <= x(51)#51 <= 1
 0 <= x(52)#52 <= 1
 0 <= x(53)#53 <= 1
 0 <= x(54)#54 <= 1
 0 <= x(55)#55 <= 1
 0 <= x(56)#56 <= 1
 0 <= x(57)#57 <= 1
 0 <= x(58)#58 <= 1
 0 <= x(59)#59 <= 1
 0 <= x(60)#60 <= 1
 0 <= x(61)#61 <= 1
 0 <= x(62)#62 <= 1
 0 <= x(63)#63 <= 1
 0 <= x(64)#64 <= 1
 0 <= x(65)#65 <= 1
 0 <= x(66)#66 <= 1
 0 <= x(67)#67 <= 1
 0 <= x(68)#68 <= 1
 0 <= x(69)#69 <= 1
 0 <= x(70)#70 <= 1
 0 <= x(71)#71 <= 1
 0 <= x(72)#72 <= 1
 0 <= x(73)#73 <= 1
 0 <= x(74)#74 <= 1
 0 <= x(75)#75 <= 1
 0 <= x(76)#76 <= 1
 0 <= x(77)#77 <= 1
 0 <= x(78)#78 <= 1
 0 <= x(79)#79 <= 1
 0 <= x(80)#80 <= 1
 0 <= x(81)#81 <= 1
 0 <= x(82)#82 <= 1
 0 <= x(83)#83 <= 1
 0 <= x(84)#84 <= 1
 0 <= x(85)#85 <= 1
 0 <= x(86)#86 <= 1
 0 <= x(87)#87 <= 1
 0 <= x(88)#88 <= 1
 0 <= x(89)#89 <= 1
 0 <= x(90)#90 <= 1
 0 <= x(91)#91 <= 1
 0 <= x(92)#92 <= 1
 0 <= x(93)#93 <= 1
 0 <= x(94)#94 <= 1
 0 <= x(95)#95 <= 1
 0 <= x(96)#96 <= 1
 0 <= x(97)#97 <= 1
 0 <= x(98)#98 <= 1
 0 <= x(99)#99 <= 1
Generals
 x(0)#0  x(1)#1  x(2)#2  x(3)#3  x(4)#4  x(5)#5  x(6)#6  x(7)#7  x(8)#8 
 x(9)#9  x(10)#10  x(11)#11  x(12)#12  x(13)#13  x(14)#14  x(15)#15  x(16)#16 
 x(17)#17  x(18)#18  x(19)#19  x(20)#20  x(21)#21  x(22)#22  x(23)#23 
 x(24)#24  x(25)#25  x(26)#26  x(27)#27  x(28)#28  x(29)#29  x(30)#30 
 x(31)#31  x(32)#32  x(33)#33  x(34)#34  x(35)#35  x(36)#36  x(37)#37 
 x(38)#38  x(39)#39  x(40)#40  x(41)#41  x(42)#42  x(43)#43  x(44)#44 
 x(45)#45  x(46)#46  x(47)#47  x(48)#48  x(49)#49  x(50)#50  x(51)#51 
 x(52)#52  x(53)#53  x(54)#54  x(55)#55  x(56)#56  x(57)#57  x(58)#58 
 x(59)#59  x(60)#60  x(61)#61  x(62)#62  x(63)#63  x(64)#64  x(65)#65 
 x(66)#66  x(67)#67  x(68)#68  x(69)#69  x(70)#70  x(71)#71  x(72)#72 
 x(73)#73  x(74)#74  x(75)#75  x(76)#76  x(77)#77  x(78)#78  x(79)#79 
 x(80)#80  x(81)#81  x(82)#82  x(83)#83  x(84)#84  x(85)#85  x(86)#86 
 x(87)#87  x(88)#88  x(89)#89  x(90)#90  x(91)#91  x(92)#92  x(93)#93 
 x(94)#94  x(95)#95  x(96)#96  x(97)#97  x(98)#98  x(99)#99 
End
